10	10
3 53	5 45	6 53	4 53	9 51	0 45	1 57	2 55	8 52	7 61
8 50	3 46	9 52	6 51	4 45	1 53	2 42	7 50	5 56	0 51
4 54	7 45	8 50	2 53	1 55	5 46	3 49	0 50	9 44	6 50
8 46	9 57	1 47	2 49	4 49	7 45	6 51	3 54	0 54	5 50
4 52	5 46	8 51	2 48	0 45	9 45	3 48	7 51	6 56	1 51
9 59	1 54	5 50	3 54	4 43	8 52	0 38	6 60	7 46	2 48
8 60	9 53	1 40	6 48	4 51	7 57	3 47	2 53	5 50	0 48
1 59	5 54	8 54	2 42	3 51	9 55	0 54	4 51	6 45	7 54
8 60	6 47	9 53	0 51	7 53	5 51	4 44	3 59	1 52	2 56
2 57	9 43	4 60	7 43	8 46	1 47	3 40	6 48	0 53	5 52
